39019364072278627185015,5,1,2,09,7,1,2,014,4,1,2,011,11,1,2,08,11,1,2,06,9,1,2,04,8,1,2,02,7,1,2,013,5,1,2,010,7,1,2,06,10,1,2,012,8,1,2,09,3,1,2,04,7,1,2,07,10,1,2,010,12,1,2,06,11,1,2,09,7,1,2,012,9,1,2,011,3,1,2,014,5,1,2,01,8,1,2,01,11,1,2,010,15,1,2,05,9,1,2,014,6,1,2,08,12,1,2,03,8,1,2,02,12,1,2,07,3,1,2,013,13,1,2,07,13,1,2,015,5,1,2,05,10,1,2,04,5,1,2,08,13,1,2,02,14,1,2,08,15,1,2,07,3,1,2,011,12,1,2,02,3,1,2,011,8,1,2,06,3,1,2,010,8,1,2,01,12,1,2,07,5,1,2,09,2,1,2,011,9,1,2,07,14,1,2,011,2,1,2,0